
Gurobi 9.5.0 (win64) logging started Tue Dec  7 12:39:48 2021

Set parameter LogFile to value "../results/logs/log_2021_12_07_12_26.csv_9_60.log"
Set parameter Method to value 3
Gurobi Optimizer version 9.5.0 build v9.5.0rc5 (win64)
Thread count: 6 physical cores, 12 logical processors, using up to 12 threads
Optimize a model with 238 rows, 9882 columns and 8569 nonzeros
Model fingerprint: 0x2c83ca4a
Variable types: 4941 continuous, 4941 integer (4941 binary)
Coefficient statistics:
  Matrix range     [1e+00, 9e+00]
  Objective range  [1e+00, 1e+00]
  Bounds range     [1e+00, 1e+00]
  RHS range        [1e+00, 6e+01]
Found heuristic solution: objective -0.0000000
Presolve removed 171 rows and 9769 columns
Presolve time: 0.01s
Presolved: 67 rows, 113 columns, 403 nonzeros
Extracted 24 lazy constraints
Variable types: 60 continuous, 53 integer (51 binary)

Root relaxation: objective 4.350617e+01, 23 iterations, 0.00 seconds (0.00 work units)

    Nodes    |    Current Node    |     Objective Bounds      |     Work
 Expl Unexpl |  Obj  Depth IntInf | Incumbent    BestBd   Gap | It/Node Time

     0     0   43.50617    0   15   -0.00000   43.50617      -     -    0s
H    0     0                       8.0000000   43.50617   444%     -    0s
     0     0   26.22041    0   19    8.00000   26.22041   228%     -    0s
     0     0   24.79380    0   20    8.00000   24.79380   210%     -    0s
H    0     0                      10.0000000   24.79380   148%     -    0s
H    0     0                      22.0000000   24.75524  12.5%     -    0s
     0     0   24.75524    0   21   22.00000   24.75524  12.5%     -    0s
     0     0   24.75025    0   21   22.00000   24.75025  12.5%     -    0s
     0     0   24.56428    0   19   22.00000   24.56428  11.7%     -    0s
     0     0   24.55951    0   12   22.00000   24.55951  11.6%     -    0s
H    0     0                      24.0000000   24.54179  2.26%     -    0s
     0     0   24.03740    0   12   24.00000   24.03740  0.16%     -    0s

Cutting planes:
  Gomory: 4
  Implied bound: 7
  MIR: 33
  RLT: 5
  Relax-and-lift: 2
  Lazy constraints: 24

Explored 1 nodes (204 simplex iterations) in 0.03 seconds (0.01 work units)
Thread count was 12 (of 12 available processors)

Solution count 5: 24 22 10 ... -0

Optimal solution found (tolerance 1.00e-04)
Best objective 2.400000000000e+01, best bound 2.400000000000e+01, gap 0.0000%
